3221 3139 3139 3182 3088 3062 2987 3015 2962 2952 2952 2984 2997 2978 2921 2845 2807 2777 2698 2652 2599 2551 2506 2424 2395 2357 2333 2296 2257 2218 2186 2152 2115 2093 2084 2048 2028 2012 1992 1951 1941 1928 1916 1883 1870 1850 1824 1805 1794 1782 1762 1749 1743 1723 1700 1693 1679 1672 1662 1651 1645 1636 1625 1619 1610 1593 1585 1579 1569 1559 1545 1543 1531 1526 1518 1514 1507 1499 1493 1490 1484 1482 1472 1472 1465 1463 1458 1453 1450 1448 1443 1440 1438 1433 1425 1423 1417 1414 1408 1402 1398 1392 1387 1377 1374 1372 1367 1353 1343 1339 1337 1333 1329 1323 1315 1311 1300 1294 1291 1290 1284 1281 1277 1276 1272 1271 1269 1269 1265 1265 1254 1252 1251 1250 1243 1242 1241 1240 1238 1237 1237 1236 1235 1233 1232 1230 1228 1228 1224 1222 1222 1221 1221 1220 1220 1218 1217 1217 1214 1214 1211 1211 1210 1207 1205 1202 1202 1202 1201 1201 1201 1201 1200 1200 1200 1199 1198 1198 1197 1193 1192 1190 1190 1186 1186 1182 1182 1182 1177 1177 1176 1175 1175 1174 1173 1173 1173 1173 1172 1172 1172 1172 1172 1172 1169 1164 1163 1160 1160 1160 1159 1159 1158 1158 1158 1157 1157 1154 1154 1151 1151 1148 1148 1148 1148 1142 1142 1142 1142 1142 1142 1142 1136 1136 1136 1136 1136 1136 1133 1133 1133 1131 1131 1131 1131 1131 1131 1131 1131 1131 1131 1131 1131 1129 1129 1129 1129 1129 1126 1126 1126 1126 1126 1126 1126 1126 1126 1126 1126 1126 1125 1125 1125 1125 1125 1125 1125 1125 1125 1125 1125 1125 1125 1125 1125 1125 1125 1125 1125 1125 1125 1125 1125 1118 1118 1118 1118 1118 1118 1118 1118 1118 1118 1118 1118 1118 1118 1118 1118 1118 1118 1118 1118 1118 1117 1117 1117 1117 1117 1117 1117 1117 1117 1117 1117 1117 1117 1117 1116 1116 1116 1116 1115 1115 1115 1115 1113 1111 1111 1109 1107 1107 1107 1106 1096 1096 1090 1090 1090 1090 1090 1090 1090 1090 1090 1090 1090 1090 1090 1090 1090 1090 1090 1090 1090 1090 1090 1090 1090 1090 1090 1090 1090 1090 1090 1090 1090 1090 1089 1089 1089 1082 1082 1081 1080 1079 1071 1071 1071 1071 1071 1071 1071 1071 1071 1071 1071 1071 1071 1071 1071 1071 1071 1071 1071 1071 1071 1071 1071 1071 1071 1071 1071 1071 1071 1071 1071 1071 1071 1071 1071 1071 1071 1071 1071 1071 1071 1071 1071 1071 1071 1071 1071 1071 1071 1071 1071 1071 1071 1071 1071 1071 1071 1071 1069 1069 1069 1069 1069 1069 1069 1069 1069 1069 1069 1069 1069 1069 1069 1069 1069 1069 1069 1069 1069 1069 1069 1069 1069 1069 1069 1069 1069 1069 1069 1069 1069 1069 1069 1069 1069 1069 1069 1069 1069 1069 1069 1069 1069 1069 1069 1069 1069 1069 1069 1069 1069 1069 1069 1069 1069 1069 1069 1069 1069 1069 1069 1069 1069 1069 1069 1069 1069 1069 1069 1069 1069 1069 1069 1069 1069 1069 1069 1069 1069 1069 1069 1069 1069 1069 1069 1069 1069 1069 1069 1069 1069 1069 1069 1069 1069 1069 1069 1069 1069 1069 1069 1069 1069 1069 1069 1069 1069 1069 1069 1069 1069 1067 1067 1067 1067 1067 1067 1064 1064 1064 1064 1064 1064 1064 1064 1064 1064 1064 1064 1064 1064 1064 1064 1064 1064 1064 1064 1064 1064 1064 1064 1064 1064 1064 1064 1064 1064 1064 1064 1064 1064 1064 1064 1064 1064 1064 1064 1064 1064 1064 1064 1064 1064 1064 1064 1064 1064 1064 1064 1064 1064 1064 1064 1064 1064 1064 1064 1064 1064 1064 1064 1064 1064 1064 1064 1064 1064 1064 1064 1064 1064 1064 1064 1064 1064 1064 1064 1064 1064 1064 1064 1064 1064 1064 1064 1064 1064 1064 1064 1064 1064 1064 1064 1064 1064 1064 1064 1064 1064 1064 1064 1064 1064 1064 1064 1064 1064 1064 1064 1064 1064 1064 1064 1064 1064 1064 1064 1064 1064 1064 1064 1064 1064 1064 1064 1064 1064 1064 1064 1064 1064 1064 1064 1064 1064 1064 1064 1064 1064 1064 1064 1064 1064 1064 1064 1064 1064 1064 1064 1064 1064 1064 1064 1064 1064 1064 1064 1064 1064 1064 1064 1064 1064 1064 1064 1064 1064 1064 1064 1064 1064 1064 1064 1064 1064 1064 1064 1064 1064 1064 1064 1064 1064 1064 1064 1064 1064 1064 1064 1064 1064 1064 1064 1064 1064 1064 1064 1064 1064 1064 1064 1064 1064 1064 1064 1064 1064 1064 1064 1064 1064 1064 1064 1064 1064 1064 1064 1064 1064 1064 1064 1064 1064 1064 1064 1064 1064 1064 1064 1064 1064 1064 1064 1064 1064 1064 1064 1064 1064 1064 1064 1064 1064 1064 1064 1064 1064 1064 1064 1064 1064 1064 1064 1064 1064 1064 1064 1064 1064 1064 1064 1064 1064 1064 1064 1064 1064 1064 1064 1064 1064 1064 1064 1064 1064 1064 1064 1064 1064 1064 1064 1064 1064 1064 1064 1064 1064 1064 1064 1064 1064 1064 1064 1064 1064 1064 1064 1064 1064 1064 1064 1064 1064 1064 1064 1064 1064 1064 1064 1064 1064 1064 1064 1064 1064 1064 1064 1064 1064 1064 1064 1064 1064 1064 1064 1064 1064 1064 1064 1064 1064 1064 1064 1064 1064 1064 1064 1064 1064 1064 1064 1064 1064 1064 1064 1064 1064 1064 1064 1064 1064 1064 1064 1064 1064 1064 1064 1064 1064 1064 1064 1064 1064 1064 1064 1064 1064 1064 1064 1064 1064 1064 1064 1064 1064 1064 1064 1064 1064 1064 1064 1064 1064 1064 1064 1064 1064 1064 1064 1064 1064 1064 1064 1064 1064 1064 1064 1064 1064 1064 1064 1064 1064 1064 1064 1064 1064 1064 1064 1064 1064 1064 1064 1064 1064 1064 1064 1064 1064 1064 1064 1064 1064 1064 1064 1064 1064 1064 1064 1064 1064 1064 1064 1064 1064 1064 1064 1064 1064 1064 1064 1064 1064 1064 1064 1064 1064 1064 1064 1064 1064 1064 1064 1064 1064 1064 1064 1064 1064 1064 1064 1064 1064 1064 1064 1064 1064 1064 1064 1064 1064 1064 1064 1064 1064 1064 1064 1064 1064 1064 1064 1064 1064 1064 1064 1064 1064 1064 1064 1064 1064 1064 1064 1064 1064 1064 1064 1064 
235 204 180 129 69 29 28 16 14 3 0 0 0 0 0 0 0 0 0 0 0 0 0 0 0 0 0 0 0 0 0 0 0 0 0 0 0 0 0 0 0 0 0 0 0 0 0 0 0 0 0 0 0 0 0 0 0 0 0 0 0 0 0 0 0 0 0 0 0 0 0 0 0 0 0 0 0 0 0 0 0 0 0 0 0 0 0 0 0 0 0 0 0 0 0 0 0 0 0 0 0 0 0 0 0 0 0 0 0 0 0 0 0 0 0 0 0 0 0 0 0 0 0 0 0 0 0 0 0 0 0 0 0 0 0 0 0 0 0 0 0 0 0 0 0 0 0 0 0 0 0 0 0 0 0 0 0 0 0 0 0 0 0 0 0 0 0 0 0 0 0 0 0 0 0 0 0 0 0 0 0 0 0 0 0 0 0 0 0 0 0 0 0 0 0 0 0 0 0 0 0 0 0 0 0 0 0 0 0 0 0 0 0 0 0 0 0 0 0 0 0 0 0 0 0 0 0 0 0 0 0 0 0 0 0 0 0 0 0 0 0 0 0 0 0 0 0 0 0 0 0 0 0 0 0 0 0 0 0 0 0 0 0 0 0 0 0 0 0 0 0 0 0 0 0 0 0 0 0 0 0 0 0 0 0 0 0 0 0 0 0 0 0 0 0 0 0 0 0 0 0 0 0 0 0 0 0 0 0 0 0 0 0 0 0 0 0 0 0 0 0 0 0 0 0 0 0 0 0 0 0 0 0 0 0 0 0 0 0 0 0 0 0 0 0 0 0 0 0 0 0 0 0 0 0 0 0 0 0 0 0 0 0 0 0 0 0 0 0 0 0 0 0 0 0 0 0 0 0 0 0 0 0 0 0 0 0 0 0 0 0 0 0 0 0 0 0 0 0 0 0 0 0 0 0 0 0 0 0 0 0 0 0 0 0 0 0 0 0 0 0 0 0 0 0 0 0 0 0 0 0 0 0 0 0 0 0 0 0 0 0 0 0 0 0 0 0 0 0 0 0 0 0 0 0 0 0 0 0 0 0 0 0 0 0 0 0 0 0 0 0 0 0 0 0 0 0 0 0 0 0 0 0 0 0 0 0 0 0 0 0 0 0 0 0 0 0 0 0 0 0 0 0 0 0 0 0 0 0 0 0 0 0 0 0 0 0 0 0 0 0 0 0 0 0 0 0 0 0 0 0 0 0 0 0 0 0 0 0 0 0 0 0 0 0 0 0 0 0 0 0 0 0 0 0 0 0 0 0 0 0 0 0 0 0 0 0 0 0 0 0 0 0 0 0 0 0 0 0 0 0 0 0 0 0 0 0 0 0 0 0 0 0 0 0 0 0 0 0 0 0 0 0 0 0 0 0 0 0 0 0 0 0 0 0 0 0 0 0 0 0 0 0 0 0 0 0 0 0 0 0 0 0 0 0 0 0 0 0 0 0 0 0 0 0 0 0 0 0 0 0 0 0 0 0 0 0 0 0 0 0 0 0 0 0 0 0 0 0 0 0 0 0 0 0 0 0 0 0 0 0 0 0 0 0 0 0 0 0 0 0 0 0 0 0 0 0 0 0 0 0 0 0 0 0 0 0 0 0 0 0 0 0 0 0 0 0 0 0 0 0 0 0 0 0 0 0 0 0 0 0 0 0 0 0 0 0 0 0 0 0 0 0 0 0 0 0 0 0 0 0 0 0 0 0 0 0 0 0 0 0 0 0 0 0 0 0 0 0 0 0 0 0 0 0 0 0 0 0 0 0 0 0 0 0 0 0 0 0 0 0 0 0 0 0 0 0 0 0 0 0 0 0 0 0 0 0 0 0 0 0 0 0 0 0 0 0 0 0 0 0 0 0 0 0 0 0 0 0 0 0 0 0 0 0 0 0 0 0 0 0 0 0 0 0 0 0 0 0 0 0 0 0 0 0 0 0 0 0 0 0 0 0 0 0 0 0 0 0 0 0 0 0 0 0 0 0 0 0 0 0 0 0 0 0 0 0 0 0 0 0 0 0 0 0 0 0 0 0 0 0 0 0 0 0 0 0 0 0 0 0 0 0 0 0 0 0 0 0 0 0 0 0 0 0 0 0 0 0 0 0 0 0 0 0 0 0 0 0 0 0 0 0 0 0 0 0 0 0 0 0 0 0 0 0 0 0 0 0 0 0 0 0 0 0 0 0 0 0 0 0 0 0 0 0 0 0 0 0 0 0 0 0 0 0 0 0 0 0 0 0 0 0 0 0 0 0 0 0 0 0 0 0 0 0 0 0 0 0 0 0 0 0 0 0 0 0 0 0 0 0 0 0 0 0 0 0 0 0 0 0 0 0 0 0 0 0 0 0 0 0 0 0 0 0 0 0 0 0 0 0 0 0 0 0 0 0 0 0 0 0 0 0 0 